c File: flat50_3_0.col
c
c SOURCE: Joseph Culberson (joe@cs.ualberta.ca)
c DESCRIPTION: Quasi-random coloring problem
c              generated with flatness = 0
c                             probability = 0.139
c                             known coloring = 3
c                             random seed = 1521
c              Creation Date:  Tue Jun  9 12:11:21 1998
c Maximum degree = 7 Minimum degree = 2
c p edge 50 115
c cnf created by edge2cnf
p cnf 150 545
-1 -2 0
-1 -3 0
-2 -3 0
1 2 3 0
-4 -5 0
-4 -6 0
-5 -6 0
4 5 6 0
-7 -8 0
-7 -9 0
-8 -9 0
7 8 9 0
-10 -11 0
-10 -12 0
-11 -12 0
10 11 12 0
-13 -14 0
-13 -15 0
-14 -15 0
13 14 15 0
-16 -17 0
-16 -18 0
-17 -18 0
16 17 18 0
-19 -20 0
-19 -21 0
-20 -21 0
19 20 21 0
-22 -23 0
-22 -24 0
-23 -24 0
22 23 24 0
-25 -26 0
-25 -27 0
-26 -27 0
25 26 27 0
-28 -29 0
-28 -30 0
-29 -30 0
28 29 30 0
-31 -32 0
-31 -33 0
-32 -33 0
31 32 33 0
-34 -35 0
-34 -36 0
-35 -36 0
34 35 36 0
-37 -38 0
-37 -39 0
-38 -39 0
37 38 39 0
-40 -41 0
-40 -42 0
-41 -42 0
40 41 42 0
-43 -44 0
-43 -45 0
-44 -45 0
43 44 45 0
-46 -47 0
-46 -48 0
-47 -48 0
46 47 48 0
-49 -50 0
-49 -51 0
-50 -51 0
49 50 51 0
-52 -53 0
-52 -54 0
-53 -54 0
52 53 54 0
-55 -56 0
-55 -57 0
-56 -57 0
55 56 57 0
-58 -59 0
-58 -60 0
-59 -60 0
58 59 60 0
-61 -62 0
-61 -63 0
-62 -63 0
61 62 63 0
-64 -65 0
-64 -66 0
-65 -66 0
64 65 66 0
-67 -68 0
-67 -69 0
-68 -69 0
67 68 69 0
-70 -71 0
-70 -72 0
-71 -72 0
70 71 72 0
-73 -74 0
-73 -75 0
-74 -75 0
73 74 75 0
-76 -77 0
-76 -78 0
-77 -78 0
76 77 78 0
-79 -80 0
-79 -81 0
-80 -81 0
79 80 81 0
-82 -83 0
-82 -84 0
-83 -84 0
82 83 84 0
-85 -86 0
-85 -87 0
-86 -87 0
85 86 87 0
-88 -89 0
-88 -90 0
-89 -90 0
88 89 90 0
-91 -92 0
-91 -93 0
-92 -93 0
91 92 93 0
-94 -95 0
-94 -96 0
-95 -96 0
94 95 96 0
-97 -98 0
-97 -99 0
-98 -99 0
97 98 99 0
-100 -101 0
-100 -102 0
-101 -102 0
100 101 102 0
-103 -104 0
-103 -105 0
-104 -105 0
103 104 105 0
-106 -107 0
-106 -108 0
-107 -108 0
106 107 108 0
-109 -110 0
-109 -111 0
-110 -111 0
109 110 111 0
-112 -113 0
-112 -114 0
-113 -114 0
112 113 114 0
-115 -116 0
-115 -117 0
-116 -117 0
115 116 117 0
-118 -119 0
-118 -120 0
-119 -120 0
118 119 120 0
-121 -122 0
-121 -123 0
-122 -123 0
121 122 123 0
-124 -125 0
-124 -126 0
-125 -126 0
124 125 126 0
-127 -128 0
-127 -129 0
-128 -129 0
127 128 129 0
-130 -131 0
-130 -132 0
-131 -132 0
130 131 132 0
-133 -134 0
-133 -135 0
-134 -135 0
133 134 135 0
-136 -137 0
-136 -138 0
-137 -138 0
136 137 138 0
-139 -140 0
-139 -141 0
-140 -141 0
139 140 141 0
-142 -143 0
-142 -144 0
-143 -144 0
142 143 144 0
-145 -146 0
-145 -147 0
-146 -147 0
145 146 147 0
-148 -149 0
-148 -150 0
-149 -150 0
148 149 150 0
-73 -1 0
-74 -2 0
-75 -3 0
-85 -1 0
-86 -2 0
-87 -3 0
-88 -1 0
-89 -2 0
-90 -3 0
-91 -1 0
-92 -2 0
-93 -3 0
-61 -4 0
-62 -5 0
-63 -6 0
-106 -4 0
-107 -5 0
-108 -6 0
-139 -4 0
-140 -5 0
-141 -6 0
-148 -4 0
-149 -5 0
-150 -6 0
-79 -7 0
-80 -8 0
-81 -9 0
-88 -7 0
-89 -8 0
-90 -9 0
-121 -7 0
-122 -8 0
-123 -9 0
-124 -7 0
-125 -8 0
-126 -9 0
-130 -7 0
-131 -8 0
-132 -9 0
-67 -10 0
-68 -11 0
-69 -12 0
-85 -10 0
-86 -11 0
-87 -12 0
-97 -10 0
-98 -11 0
-99 -12 0
-103 -10 0
-104 -11 0
-105 -12 0
-136 -10 0
-137 -11 0
-138 -12 0
-139 -10 0
-140 -11 0
-141 -12 0
-148 -10 0
-149 -11 0
-150 -12 0
-61 -13 0
-62 -14 0
-63 -15 0
-82 -13 0
-83 -14 0
-84 -15 0
-133 -13 0
-134 -14 0
-135 -15 0
-142 -13 0
-143 -14 0
-144 -15 0
-145 -13 0
-146 -14 0
-147 -15 0
-52 -16 0
-53 -17 0
-54 -18 0
-67 -16 0
-68 -17 0
-69 -18 0
-148 -16 0
-149 -17 0
-150 -18 0
-55 -19 0
-56 -20 0
-57 -21 0
-85 -19 0
-86 -20 0
-87 -21 0
-91 -19 0
-92 -20 0
-93 -21 0
-100 -19 0
-101 -20 0
-102 -21 0
-115 -19 0
-116 -20 0
-117 -21 0
-136 -19 0
-137 -20 0
-138 -21 0
-130 -22 0
-131 -23 0
-132 -24 0
-136 -22 0
-137 -23 0
-138 -24 0
-142 -22 0
-143 -23 0
-144 -24 0
-145 -22 0
-146 -23 0
-147 -24 0
-70 -25 0
-71 -26 0
-72 -27 0
-97 -25 0
-98 -26 0
-99 -27 0
-103 -25 0
-104 -26 0
-105 -27 0
-109 -25 0
-110 -26 0
-111 -27 0
-58 -28 0
-59 -29 0
-60 -30 0
-73 -28 0
-74 -29 0
-75 -30 0
-94 -28 0
-95 -29 0
-96 -30 0
-97 -28 0
-98 -29 0
-99 -30 0
-118 -28 0
-119 -29 0
-120 -30 0
-88 -31 0
-89 -32 0
-90 -33 0
-100 -31 0
-101 -32 0
-102 -33 0
-142 -31 0
-143 -32 0
-144 -33 0
-145 -31 0
-146 -32 0
-147 -33 0
-52 -34 0
-53 -35 0
-54 -36 0
-82 -34 0
-83 -35 0
-84 -36 0
-100 -34 0
-101 -35 0
-102 -36 0
-127 -34 0
-128 -35 0
-129 -36 0
-139 -34 0
-140 -35 0
-141 -36 0
-58 -37 0
-59 -38 0
-60 -39 0
-148 -37 0
-149 -38 0
-150 -39 0
-58 -40 0
-59 -41 0
-60 -42 0
-94 -40 0
-95 -41 0
-96 -42 0
-106 -40 0
-107 -41 0
-108 -42 0
-109 -40 0
-110 -41 0
-111 -42 0
-124 -40 0
-125 -41 0
-126 -42 0
-130 -40 0
-131 -41 0
-132 -42 0
-58 -43 0
-59 -44 0
-60 -45 0
-70 -43 0
-71 -44 0
-72 -45 0
-100 -43 0
-101 -44 0
-102 -45 0
-115 -43 0
-116 -44 0
-117 -45 0
-121 -43 0
-122 -44 0
-123 -45 0
-130 -43 0
-131 -44 0
-132 -45 0
-52 -46 0
-53 -47 0
-54 -48 0
-61 -46 0
-62 -47 0
-63 -48 0
-76 -46 0
-77 -47 0
-78 -48 0
-97 -46 0
-98 -47 0
-99 -48 0
-106 -46 0
-107 -47 0
-108 -48 0
-139 -46 0
-140 -47 0
-141 -48 0
-73 -49 0
-74 -50 0
-75 -51 0
-142 -49 0
-143 -50 0
-144 -51 0
-121 -52 0
-122 -53 0
-123 -54 0
-115 -55 0
-116 -56 0
-117 -57 0
-133 -55 0
-134 -56 0
-135 -57 0
-142 -55 0
-143 -56 0
-144 -57 0
-145 -55 0
-146 -56 0
-147 -57 0
-127 -61 0
-128 -62 0
-129 -63 0
-136 -61 0
-137 -62 0
-138 -63 0
-109 -64 0
-110 -65 0
-111 -66 0
-115 -64 0
-116 -65 0
-117 -66 0
-136 -64 0
-137 -65 0
-138 -66 0
-145 -64 0
-146 -65 0
-147 -66 0
-112 -67 0
-113 -68 0
-114 -69 0
-124 -73 0
-125 -74 0
-126 -75 0
-115 -76 0
-116 -77 0
-117 -78 0
-121 -76 0
-122 -77 0
-123 -78 0
-124 -76 0
-125 -77 0
-126 -78 0
-109 -79 0
-110 -80 0
-111 -81 0
-139 -79 0
-140 -80 0
-141 -81 0
-145 -79 0
-146 -80 0
-147 -81 0
-148 -79 0
-149 -80 0
-150 -81 0
-109 -82 0
-110 -83 0
-111 -84 0
-130 -82 0
-131 -83 0
-132 -84 0
-106 -85 0
-107 -86 0
-108 -87 0
-112 -85 0
-113 -86 0
-114 -87 0
-133 -85 0
-134 -86 0
-135 -87 0
-148 -85 0
-149 -86 0
-150 -87 0
-109 -88 0
-110 -89 0
-111 -90 0
-112 -88 0
-113 -89 0
-114 -90 0
-142 -88 0
-143 -89 0
-144 -90 0
-145 -88 0
-146 -89 0
-147 -90 0
-136 -91 0
-137 -92 0
-138 -93 0
-118 -94 0
-119 -95 0
-120 -96 0
-139 -94 0
-140 -95 0
-141 -96 0
-115 -97 0
-116 -98 0
-117 -99 0
-124 -97 0
-125 -98 0
-126 -99 0
-136 -100 0
-137 -101 0
-138 -102 0
-142 -100 0
-143 -101 0
-144 -102 0
